datasets/2-dimensional/CL_03_25_02.vbp
2
1000 1000 
25
250 630 30
710 234 72
641 275 4
376 287 88
448 602 54
391 555 64
537 279 90
221 706 26
775 571 94
733 606 28
629 545 72
595 321 49
365 668 54
472 718 19
449 406 28
631 465 61
349 627 84
339 226 23
332 597 67
262 271 53
263 382 54
668 464 16
210 249 9
223 272 54
439 666 77
