datasets/2-dimensional-benchmark/CL_03_25_02.txt
1000 1000 
0 30 250 630 
1 72 710 234 
2 4 641 275 
3 88 376 287 
4 54 448 602 
5 64 391 555 
6 90 537 279 
7 26 221 706 
8 94 775 571 
9 28 733 606 
10 72 629 545 
11 49 595 321 
12 54 365 668 
13 19 472 718 
14 28 449 406 
15 61 631 465 
16 84 349 627 
17 23 339 226 
18 67 332 597 
19 53 262 271 
20 54 263 382 
21 16 668 464 
22 9 210 249 
23 54 223 272 
24 77 439 666 
